NAME: tsp20_28
COMMENT: 20-tsp problem (Padberg/Rinaldi)
TYPE: TSP
DIMENSION: 20
EDGE_WEIGHT_TYPE : EUC_2D
NODE_COORD_SECTION
1.00 1.27 4.12
2.00 33.40 39.76
3.00 9.84 36.71
4.00 0.66 32.84
5.00 14.99 39.10
6.00 37.04 9.66
7.00 8.19 11.28
8.00 36.99 36.81
9.00 30.71 21.67
10.00 34.28 12.98
11.00 6.25 10.11
12.00 10.00 28.70
13.00 6.92 15.06
14.00 34.17 23.46
15.00 35.63 30.45
16.00 29.25 13.38
17.00 38.07 12.20
18.00 24.30 0.25
19.00 13.84 4.88
20.00 0.12 10.51
